NAME          
ROWS
 N  OBJ
 L  c1
COLUMNS
    MARKER    'MARKER'                 'INTORG'
    x[1]      c1        653
    x[1]      OBJ       -591
    x[2]      c1        584
    x[2]      OBJ       -544
    x[3]      c1        198
    x[3]      OBJ       -294
    x[4]      c1        324
    x[4]      OBJ       -289
    x[5]      c1        214
    x[5]      OBJ       -152
    x[6]      c1        119
    x[6]      OBJ       -97
    x[7]      c1        303
    x[7]      OBJ       -337
    x[8]      c1        124
    x[8]      OBJ       -200
    x[9]      c1        920
    x[9]      OBJ       -983
    x[10]     c1        211
    x[10]     OBJ       -179
RHS
    rhs       c1        1825
RANGES
BOUNDS
 LO bounds    x[1]      0
 PL bounds    x[1]
 LO bounds    x[2]      0
 PL bounds    x[2]
 LO bounds    x[3]      0
 PL bounds    x[3]
 LO bounds    x[4]      0
 PL bounds    x[4]
 LO bounds    x[5]      0
 PL bounds    x[5]
 LO bounds    x[6]      0
 PL bounds    x[6]
 LO bounds    x[7]      0
 PL bounds    x[7]
 LO bounds    x[8]      0
 PL bounds    x[8]
 LO bounds    x[9]      0
 PL bounds    x[9]
 LO bounds    x[10]     0
 PL bounds    x[10]
ENDATA
